p cnf 105 750 
 1 16 31 46 61 76 91 0 
 2 17 32 47 62 77 92 0 
 3 18 33 48 63 78 93 0 
 4 19 34 49 64 79 94 0 
 5 20 35 50 65 80 95 0 
 6 21 36 51 66 81 96 0 
 7 22 37 52 67 82 97 0 
 8 23 38 53 68 83 98 0 
 9 24 39 54 69 84 99 0 
 10 25 40 55 70 85 100 0 
 11 26 41 56 71 86 101 0 
 12 27 42 57 72 87 102 0 
 13 28 43 58 73 88 103 0 
 14 29 44 59 74 89 104 0 
 15 30 45 60 75 90 105 0 
 -1 -2 0 
 -1 -3 0 
 -1 -4 0 
 -1 -5 0 
 -1 -6 0 
 -1 -7 0 
 -1 -8 0 
 -1 -9 0 
 -1 -10 0 
 -1 -11 0 
 -1 -12 0 
 -1 -13 0 
 -1 -14 0 
 -1 -15 0 
 -2 -3 0 
 -2 -4 0 
 -2 -5 0 
 -2 -6 0 
 -2 -7 0 
 -2 -8 0 
 -2 -9 0 
 -2 -10 0 
 -2 -11 0 
 -2 -12 0 
 -2 -13 0 
 -2 -14 0 
 -2 -15 0 
 -3 -4 0 
 -3 -5 0 
 -3 -6 0 
 -3 -7 0 
 -3 -8 0 
 -3 -9 0 
 -3 -10 0 
 -3 -11 0 
 -3 -12 0 
 -3 -13 0 
 -3 -14 0 
 -3 -15 0 
 -4 -5 0 
 -4 -6 0 
 -4 -7 0 
 -4 -8 0 
 -4 -9 0 
 -4 -10 0 
 -4 -11 0 
 -4 -12 0 
 -4 -13 0 
 -4 -14 0 
 -4 -15 0 
 -5 -6 0 
 -5 -7 0 
 -5 -8 0 
 -5 -9 0 
 -5 -10 0 
 -5 -11 0 
 -5 -12 0 
 -5 -13 0 
 -5 -14 0 
 -5 -15 0 
 -6 -7 0 
 -6 -8 0 
 -6 -9 0 
 -6 -10 0 
 -6 -11 0 
 -6 -12 0 
 -6 -13 0 
 -6 -14 0 
 -6 -15 0 
 -7 -8 0 
 -7 -9 0 
 -7 -10 0 
 -7 -11 0 
 -7 -12 0 
 -7 -13 0 
 -7 -14 0 
 -7 -15 0 
 -8 -9 0 
 -8 -10 0 
 -8 -11 0 
 -8 -12 0 
 -8 -13 0 
 -8 -14 0 
 -8 -15 0 
 -9 -10 0 
 -9 -11 0 
 -9 -12 0 
 -9 -13 0 
 -9 -14 0 
 -9 -15 0 
 -10 -11 0 
 -10 -12 0 
 -10 -13 0 
 -10 -14 0 
 -10 -15 0 
 -11 -12 0 
 -11 -13 0 
 -11 -14 0 
 -11 -15 0 
 -12 -13 0 
 -12 -14 0 
 -12 -15 0 
 -13 -14 0 
 -13 -15 0 
 -14 -15 0 
 -16 -17 0 
 -16 -18 0 
 -16 -19 0 
 -16 -20 0 
 -16 -21 0 
 -16 -22 0 
 -16 -23 0 
 -16 -24 0 
 -16 -25 0 
 -16 -26 0 
 -16 -27 0 
 -16 -28 0 
 -16 -29 0 
 -16 -30 0 
 -17 -18 0 
 -17 -19 0 
 -17 -20 0 
 -17 -21 0 
 -17 -22 0 
 -17 -23 0 
 -17 -24 0 
 -17 -25 0 
 -17 -26 0 
 -17 -27 0 
 -17 -28 0 
 -17 -29 0 
 -17 -30 0 
 -18 -19 0 
 -18 -20 0 
 -18 -21 0 
 -18 -22 0 
 -18 -23 0 
 -18 -24 0 
 -18 -25 0 
 -18 -26 0 
 -18 -27 0 
 -18 -28 0 
 -18 -29 0 
 -18 -30 0 
 -19 -20 0 
 -19 -21 0 
 -19 -22 0 
 -19 -23 0 
 -19 -24 0 
 -19 -25 0 
 -19 -26 0 
 -19 -27 0 
 -19 -28 0 
 -19 -29 0 
 -19 -30 0 
 -20 -21 0 
 -20 -22 0 
 -20 -23 0 
 -20 -24 0 
 -20 -25 0 
 -20 -26 0 
 -20 -27 0 
 -20 -28 0 
 -20 -29 0 
 -20 -30 0 
 -21 -22 0 
 -21 -23 0 
 -21 -24 0 
 -21 -25 0 
 -21 -26 0 
 -21 -27 0 
 -21 -28 0 
 -21 -29 0 
 -21 -30 0 
 -22 -23 0 
 -22 -24 0 
 -22 -25 0 
 -22 -26 0 
 -22 -27 0 
 -22 -28 0 
 -22 -29 0 
 -22 -30 0 
 -23 -24 0 
 -23 -25 0 
 -23 -26 0 
 -23 -27 0 
 -23 -28 0 
 -23 -29 0 
 -23 -30 0 
 -24 -25 0 
 -24 -26 0 
 -24 -27 0 
 -24 -28 0 
 -24 -29 0 
 -24 -30 0 
 -25 -26 0 
 -25 -27 0 
 -25 -28 0 
 -25 -29 0 
 -25 -30 0 
 -26 -27 0 
 -26 -28 0 
 -26 -29 0 
 -26 -30 0 
 -27 -28 0 
 -27 -29 0 
 -27 -30 0 
 -28 -29 0 
 -28 -30 0 
 -29 -30 0 
 -31 -32 0 
 -31 -33 0 
 -31 -34 0 
 -31 -35 0 
 -31 -36 0 
 -31 -37 0 
 -31 -38 0 
 -31 -39 0 
 -31 -40 0 
 -31 -41 0 
 -31 -42 0 
 -31 -43 0 
 -31 -44 0 
 -31 -45 0 
 -32 -33 0 
 -32 -34 0 
 -32 -35 0 
 -32 -36 0 
 -32 -37 0 
 -32 -38 0 
 -32 -39 0 
 -32 -40 0 
 -32 -41 0 
 -32 -42 0 
 -32 -43 0 
 -32 -44 0 
 -32 -45 0 
 -33 -34 0 
 -33 -35 0 
 -33 -36 0 
 -33 -37 0 
 -33 -38 0 
 -33 -39 0 
 -33 -40 0 
 -33 -41 0 
 -33 -42 0 
 -33 -43 0 
 -33 -44 0 
 -33 -45 0 
 -34 -35 0 
 -34 -36 0 
 -34 -37 0 
 -34 -38 0 
 -34 -39 0 
 -34 -40 0 
 -34 -41 0 
 -34 -42 0 
 -34 -43 0 
 -34 -44 0 
 -34 -45 0 
 -35 -36 0 
 -35 -37 0 
 -35 -38 0 
 -35 -39 0 
 -35 -40 0 
 -35 -41 0 
 -35 -42 0 
 -35 -43 0 
 -35 -44 0 
 -35 -45 0 
 -36 -37 0 
 -36 -38 0 
 -36 -39 0 
 -36 -40 0 
 -36 -41 0 
 -36 -42 0 
 -36 -43 0 
 -36 -44 0 
 -36 -45 0 
 -37 -38 0 
 -37 -39 0 
 -37 -40 0 
 -37 -41 0 
 -37 -42 0 
 -37 -43 0 
 -37 -44 0 
 -37 -45 0 
 -38 -39 0 
 -38 -40 0 
 -38 -41 0 
 -38 -42 0 
 -38 -43 0 
 -38 -44 0 
 -38 -45 0 
 -39 -40 0 
 -39 -41 0 
 -39 -42 0 
 -39 -43 0 
 -39 -44 0 
 -39 -45 0 
 -40 -41 0 
 -40 -42 0 
 -40 -43 0 
 -40 -44 0 
 -40 -45 0 
 -41 -42 0 
 -41 -43 0 
 -41 -44 0 
 -41 -45 0 
 -42 -43 0 
 -42 -44 0 
 -42 -45 0 
 -43 -44 0 
 -43 -45 0 
 -44 -45 0 
 -46 -47 0 
 -46 -48 0 
 -46 -49 0 
 -46 -50 0 
 -46 -51 0 
 -46 -52 0 
 -46 -53 0 
 -46 -54 0 
 -46 -55 0 
 -46 -56 0 
 -46 -57 0 
 -46 -58 0 
 -46 -59 0 
 -46 -60 0 
 -47 -48 0 
 -47 -49 0 
 -47 -50 0 
 -47 -51 0 
 -47 -52 0 
 -47 -53 0 
 -47 -54 0 
 -47 -55 0 
 -47 -56 0 
 -47 -57 0 
 -47 -58 0 
 -47 -59 0 
 -47 -60 0 
 -48 -49 0 
 -48 -50 0 
 -48 -51 0 
 -48 -52 0 
 -48 -53 0 
 -48 -54 0 
 -48 -55 0 
 -48 -56 0 
 -48 -57 0 
 -48 -58 0 
 -48 -59 0 
 -48 -60 0 
 -49 -50 0 
 -49 -51 0 
 -49 -52 0 
 -49 -53 0 
 -49 -54 0 
 -49 -55 0 
 -49 -56 0 
 -49 -57 0 
 -49 -58 0 
 -49 -59 0 
 -49 -60 0 
 -50 -51 0 
 -50 -52 0 
 -50 -53 0 
 -50 -54 0 
 -50 -55 0 
 -50 -56 0 
 -50 -57 0 
 -50 -58 0 
 -50 -59 0 
 -50 -60 0 
 -51 -52 0 
 -51 -53 0 
 -51 -54 0 
 -51 -55 0 
 -51 -56 0 
 -51 -57 0 
 -51 -58 0 
 -51 -59 0 
 -51 -60 0 
 -52 -53 0 
 -52 -54 0 
 -52 -55 0 
 -52 -56 0 
 -52 -57 0 
 -52 -58 0 
 -52 -59 0 
 -52 -60 0 
 -53 -54 0 
 -53 -55 0 
 -53 -56 0 
 -53 -57 0 
 -53 -58 0 
 -53 -59 0 
 -53 -60 0 
 -54 -55 0 
 -54 -56 0 
 -54 -57 0 
 -54 -58 0 
 -54 -59 0 
 -54 -60 0 
 -55 -56 0 
 -55 -57 0 
 -55 -58 0 
 -55 -59 0 
 -55 -60 0 
 -56 -57 0 
 -56 -58 0 
 -56 -59 0 
 -56 -60 0 
 -57 -58 0 
 -57 -59 0 
 -57 -60 0 
 -58 -59 0 
 -58 -60 0 
 -59 -60 0 
 -61 -62 0 
 -61 -63 0 
 -61 -64 0 
 -61 -65 0 
 -61 -66 0 
 -61 -67 0 
 -61 -68 0 
 -61 -69 0 
 -61 -70 0 
 -61 -71 0 
 -61 -72 0 
 -61 -73 0 
 -61 -74 0 
 -61 -75 0 
 -62 -63 0 
 -62 -64 0 
 -62 -65 0 
 -62 -66 0 
 -62 -67 0 
 -62 -68 0 
 -62 -69 0 
 -62 -70 0 
 -62 -71 0 
 -62 -72 0 
 -62 -73 0 
 -62 -74 0 
 -62 -75 0 
 -63 -64 0 
 -63 -65 0 
 -63 -66 0 
 -63 -67 0 
 -63 -68 0 
 -63 -69 0 
 -63 -70 0 
 -63 -71 0 
 -63 -72 0 
 -63 -73 0 
 -63 -74 0 
 -63 -75 0 
 -64 -65 0 
 -64 -66 0 
 -64 -67 0 
 -64 -68 0 
 -64 -69 0 
 -64 -70 0 
 -64 -71 0 
 -64 -72 0 
 -64 -73 0 
 -64 -74 0 
 -64 -75 0 
 -65 -66 0 
 -65 -67 0 
 -65 -68 0 
 -65 -69 0 
 -65 -70 0 
 -65 -71 0 
 -65 -72 0 
 -65 -73 0 
 -65 -74 0 
 -65 -75 0 
 -66 -67 0 
 -66 -68 0 
 -66 -69 0 
 -66 -70 0 
 -66 -71 0 
 -66 -72 0 
 -66 -73 0 
 -66 -74 0 
 -66 -75 0 
 -67 -68 0 
 -67 -69 0 
 -67 -70 0 
 -67 -71 0 
 -67 -72 0 
 -67 -73 0 
 -67 -74 0 
 -67 -75 0 
 -68 -69 0 
 -68 -70 0 
 -68 -71 0 
 -68 -72 0 
 -68 -73 0 
 -68 -74 0 
 -68 -75 0 
 -69 -70 0 
 -69 -71 0 
 -69 -72 0 
 -69 -73 0 
 -69 -74 0 
 -69 -75 0 
 -70 -71 0 
 -70 -72 0 
 -70 -73 0 
 -70 -74 0 
 -70 -75 0 
 -71 -72 0 
 -71 -73 0 
 -71 -74 0 
 -71 -75 0 
 -72 -73 0 
 -72 -74 0 
 -72 -75 0 
 -73 -74 0 
 -73 -75 0 
 -74 -75 0 
 -76 -77 0 
 -76 -78 0 
 -76 -79 0 
 -76 -80 0 
 -76 -81 0 
 -76 -82 0 
 -76 -83 0 
 -76 -84 0 
 -76 -85 0 
 -76 -86 0 
 -76 -87 0 
 -76 -88 0 
 -76 -89 0 
 -76 -90 0 
 -77 -78 0 
 -77 -79 0 
 -77 -80 0 
 -77 -81 0 
 -77 -82 0 
 -77 -83 0 
 -77 -84 0 
 -77 -85 0 
 -77 -86 0 
 -77 -87 0 
 -77 -88 0 
 -77 -89 0 
 -77 -90 0 
 -78 -79 0 
 -78 -80 0 
 -78 -81 0 
 -78 -82 0 
 -78 -83 0 
 -78 -84 0 
 -78 -85 0 
 -78 -86 0 
 -78 -87 0 
 -78 -88 0 
 -78 -89 0 
 -78 -90 0 
 -79 -80 0 
 -79 -81 0 
 -79 -82 0 
 -79 -83 0 
 -79 -84 0 
 -79 -85 0 
 -79 -86 0 
 -79 -87 0 
 -79 -88 0 
 -79 -89 0 
 -79 -90 0 
 -80 -81 0 
 -80 -82 0 
 -80 -83 0 
 -80 -84 0 
 -80 -85 0 
 -80 -86 0 
 -80 -87 0 
 -80 -88 0 
 -80 -89 0 
 -80 -90 0 
 -81 -82 0 
 -81 -83 0 
 -81 -84 0 
 -81 -85 0 
 -81 -86 0 
 -81 -87 0 
 -81 -88 0 
 -81 -89 0 
 -81 -90 0 
 -82 -83 0 
 -82 -84 0 
 -82 -85 0 
 -82 -86 0 
 -82 -87 0 
 -82 -88 0 
 -82 -89 0 
 -82 -90 0 
 -83 -84 0 
 -83 -85 0 
 -83 -86 0 
 -83 -87 0 
 -83 -88 0 
 -83 -89 0 
 -83 -90 0 
 -84 -85 0 
 -84 -86 0 
 -84 -87 0 
 -84 -88 0 
 -84 -89 0 
 -84 -90 0 
 -85 -86 0 
 -85 -87 0 
 -85 -88 0 
 -85 -89 0 
 -85 -90 0 
 -86 -87 0 
 -86 -88 0 
 -86 -89 0 
 -86 -90 0 
 -87 -88 0 
 -87 -89 0 
 -87 -90 0 
 -88 -89 0 
 -88 -90 0 
 -89 -90 0 
 -91 -92 0 
 -91 -93 0 
 -91 -94 0 
 -91 -95 0 
 -91 -96 0 
 -91 -97 0 
 -91 -98 0 
 -91 -99 0 
 -91 -100 0 
 -91 -101 0 
 -91 -102 0 
 -91 -103 0 
 -91 -104 0 
 -91 -105 0 
 -92 -93 0 
 -92 -94 0 
 -92 -95 0 
 -92 -96 0 
 -92 -97 0 
 -92 -98 0 
 -92 -99 0 
 -92 -100 0 
 -92 -101 0 
 -92 -102 0 
 -92 -103 0 
 -92 -104 0 
 -92 -105 0 
 -93 -94 0 
 -93 -95 0 
 -93 -96 0 
 -93 -97 0 
 -93 -98 0 
 -93 -99 0 
 -93 -100 0 
 -93 -101 0 
 -93 -102 0 
 -93 -103 0 
 -93 -104 0 
 -93 -105 0 
 -94 -95 0 
 -94 -96 0 
 -94 -97 0 
 -94 -98 0 
 -94 -99 0 
 -94 -100 0 
 -94 -101 0 
 -94 -102 0 
 -94 -103 0 
 -94 -104 0 
 -94 -105 0 
 -95 -96 0 
 -95 -97 0 
 -95 -98 0 
 -95 -99 0 
 -95 -100 0 
 -95 -101 0 
 -95 -102 0 
 -95 -103 0 
 -95 -104 0 
 -95 -105 0 
 -96 -97 0 
 -96 -98 0 
 -96 -99 0 
 -96 -100 0 
 -96 -101 0 
 -96 -102 0 
 -96 -103 0 
 -96 -104 0 
 -96 -105 0 
 -97 -98 0 
 -97 -99 0 
 -97 -100 0 
 -97 -101 0 
 -97 -102 0 
 -97 -103 0 
 -97 -104 0 
 -97 -105 0 
 -98 -99 0 
 -98 -100 0 
 -98 -101 0 
 -98 -102 0 
 -98 -103 0 
 -98 -104 0 
 -98 -105 0 
 -99 -100 0 
 -99 -101 0 
 -99 -102 0 
 -99 -103 0 
 -99 -104 0 
 -99 -105 0 
 -100 -101 0 
 -100 -102 0 
 -100 -103 0 
 -100 -104 0 
 -100 -105 0 
 -101 -102 0 
 -101 -103 0 
 -101 -104 0 
 -101 -105 0 
 -102 -103 0 
 -102 -104 0 
 -102 -105 0 
 -103 -104 0 
 -103 -105 0 
 -104 -105 0 
